; PUSH cw_1 DUP2 PUSH cw_2 SWAP1 SSTORE POP => PUSH cw_2 DUP2 SSTORE
(set-option :produce-proofs true)
; 
(set-info :status unknown)
(declare-fun storage_t ((_ BitVec 256) (_ BitVec 256) (_ BitVec 256) (_ BitVec 256) Int (_ BitVec 256)) (_ BitVec 256))
(declare-fun w_2 () (_ BitVec 256))
(declare-fun w_1 () (_ BitVec 256))
(declare-fun storage_s ((_ BitVec 256) (_ BitVec 256) (_ BitVec 256) (_ BitVec 256) Int (_ BitVec 256)) (_ BitVec 256))
(declare-fun exc_halt_t (Int) Bool)
(declare-fun exc_halt_s (Int) Bool)
(declare-fun sc_t (Int) (_ BitVec 6))
(declare-fun stack_t ((_ BitVec 256) (_ BitVec 256) (_ BitVec 256) (_ BitVec 256) Int (_ BitVec 6)) (_ BitVec 256))
(declare-fun stack_s ((_ BitVec 256) (_ BitVec 256) (_ BitVec 256) (_ BitVec 256) Int (_ BitVec 6)) (_ BitVec 256))
(declare-fun sc_s (Int) (_ BitVec 6))
(declare-fun used_gas_t ((_ BitVec 256) (_ BitVec 256) (_ BitVec 256) (_ BitVec 256) Int) Int)
(declare-fun used_gas_s ((_ BitVec 256) (_ BitVec 256) (_ BitVec 256) (_ BitVec 256) Int) Int)
(assert
 (exists ((x_0 (_ BitVec 256)) (x_SSTORE_0 (_ BitVec 256)) )(let (($x433 (forall ((w (_ BitVec 256)) )(let ((?x9052 (storage_t x_0 x_SSTORE_0 w_1 w_2 3 w)))
 (let ((?x1299 (storage_s x_0 x_SSTORE_0 w_1 w_2 6 w)))
 (= ?x1299 ?x9052))))
 ))
 (let (($x4112 (exc_halt_t 3)))
 (let (($x772 (exc_halt_s 6)))
 (let (($x11565 (= $x772 $x4112)))
 (let (($x6432 (forall ((n (_ BitVec 6)) )(let ((?x11964 (sc_t 3)))
 (let (($x384 (bvsle ?x11964 n)))
 (let ((?x244 (stack_t x_0 x_SSTORE_0 w_1 w_2 3 n)))
 (let ((?x10678 (stack_s x_0 x_SSTORE_0 w_1 w_2 6 n)))
 (let (($x167 (= ?x10678 ?x244)))
 (or $x167 $x384)))))))
 ))
 (let ((?x11964 (sc_t 3)))
 (let ((?x926 (sc_s 6)))
 (let (($x6604 (= ?x926 ?x11964)))
 (let ((?x1083 (used_gas_t x_0 x_SSTORE_0 w_1 w_2 0)))
 (let ((?x4421 (used_gas_s x_0 x_SSTORE_0 w_1 w_2 0)))
 (let (($x7210 (= ?x4421 ?x1083)))
 (let (($x8828 (forall ((w (_ BitVec 256)) )(let ((?x9619 (storage_t x_0 x_SSTORE_0 w_1 w_2 0 w)))
 (let ((?x5527 (storage_s x_0 x_SSTORE_0 w_1 w_2 0 w)))
 (= ?x5527 ?x9619))))
 ))
 (let (($x56 (exc_halt_t 0)))
 (let (($x57 (exc_halt_s 0)))
 (let (($x58 (= $x57 $x56)))
 (let (($x4256 (forall ((n (_ BitVec 6)) )(let ((?x5040 (stack_t x_0 x_SSTORE_0 w_1 w_2 0 n)))
 (let ((?x112 (stack_s x_0 x_SSTORE_0 w_1 w_2 0 n)))
 (let (($x6173 (= ?x112 ?x5040)))
 (let ((?x63 (sc_t 0)))
 (let (($x848 (bvsle ?x63 n)))
 (or $x848 $x6173)))))))
 ))
 (let ((?x63 (sc_t 0)))
 (let ((?x72 (sc_s 0)))
 (let (($x73 (= ?x72 ?x63)))
 (let (($x10484 (= $x4112 (or (exc_halt_t 2) (not (bvsle (_ bv0 6) (bvadd (_ bv62 6) (sc_t 2))))))))
 (let (($x7507 (forall ((n (_ BitVec 6)) )(let ((?x2779 (stack_t x_0 x_SSTORE_0 w_1 w_2 2 n)))
 (let ((?x244 (stack_t x_0 x_SSTORE_0 w_1 w_2 3 n)))
 (let ((?x11248 (sc_t 2)))
 (let ((?x7032 (bvadd (_ bv62 6) ?x11248)))
 (let (($x2290 (bvsle ?x7032 n)))
 (or $x2290 (= ?x244 ?x2779))))))))
 ))
 (let (($x2984 (= (stack_t x_0 x_SSTORE_0 w_1 w_2 2 (bvadd (_ bv62 6) (sc_t 2))) (_ bv0 256))))
 (let ((?x11248 (sc_t 2)))
 (let ((?x6468 (bvadd (_ bv63 6) ?x11248)))
 (let ((?x10663 (stack_t x_0 x_SSTORE_0 w_1 w_2 2 ?x6468)))
 (let ((?x5871 (ite (= (storage_t x_0 x_SSTORE_0 w_1 w_2 2 ?x10663) (_ bv0 256)) (ite $x2984 5000 20000) (ite $x2984 (- 10000) 5000))))
 (let ((?x1174 (used_gas_t x_0 x_SSTORE_0 w_1 w_2 2)))
 (let (($x6897 (forall ((w (_ BitVec 256)) )(let ((?x6880 (storage_t x_0 x_SSTORE_0 w_1 w_2 2 w)))
 (let (($x11377 (= w (stack_t x_0 x_SSTORE_0 w_1 w_2 2 (bvadd (_ bv63 6) (sc_t 2))))))
 (let ((?x8623 (ite $x11377 (stack_t x_0 x_SSTORE_0 w_1 w_2 2 (bvadd (_ bv62 6) (sc_t 2))) ?x6880)))
 (let ((?x9052 (storage_t x_0 x_SSTORE_0 w_1 w_2 3 w)))
 (= ?x9052 ?x8623))))))
 ))
 (let (($x4852 (exc_halt_t 1)))
 (let (($x2931 (not (= ((_ extract 6 6) (bvadd (_ bv1 7) (concat (_ bv0 1) (sc_t 1)))) (_ bv0 1)))))
 (let (($x8412 (exc_halt_t 2)))
 (let (($x663 (= $x8412 (or $x2931 $x4852 (not (bvsle (_ bv0 6) (bvadd (_ bv62 6) (sc_t 1))))))))
 (let (($x11774 (forall ((w (_ BitVec 256)) )(let ((?x1987 (storage_t x_0 x_SSTORE_0 w_1 w_2 1 w)))
 (let ((?x6880 (storage_t x_0 x_SSTORE_0 w_1 w_2 2 w)))
 (= ?x6880 ?x1987))))
 ))
 (let (($x10740 (forall ((n (_ BitVec 6)) )(let ((?x9666 (sc_t 1)))
 (let ((?x1208 (bvadd (_ bv62 6) ?x9666)))
 (let (($x4032 (bvsle ?x1208 n)))
 (let ((?x3787 (stack_t x_0 x_SSTORE_0 w_1 w_2 1 n)))
 (let ((?x2779 (stack_t x_0 x_SSTORE_0 w_1 w_2 2 n)))
 (or (= ?x2779 ?x3787) $x4032)))))))
 ))
 (let (($x3033 (= ?x11248 (bvadd (_ bv1 6) (sc_t 1)))))
 (let (($x2545 (= (stack_t x_0 x_SSTORE_0 w_1 w_2 2 (bvadd (_ bv63 6) (sc_t 1))) (stack_t x_0 x_SSTORE_0 w_1 w_2 1 (bvadd (_ bv63 6) (sc_t 1))))))
 (let ((?x9666 (sc_t 1)))
 (let ((?x1208 (bvadd (_ bv62 6) ?x9666)))
 (let ((?x369 (stack_t x_0 x_SSTORE_0 w_1 w_2 1 ?x1208)))
 (let (($x10044 (= $x4852 (or $x56 (not (= ((_ extract 6 6) (bvadd (_ bv1 7) (concat (_ bv0 1) ?x63))) (_ bv0 1)))))))
 (let (($x7648 (forall ((w (_ BitVec 256)) )(let ((?x9619 (storage_t x_0 x_SSTORE_0 w_1 w_2 0 w)))
 (let ((?x1987 (storage_t x_0 x_SSTORE_0 w_1 w_2 1 w)))
 (= ?x1987 ?x9619))))
 ))
 (let (($x1883 (forall ((n (_ BitVec 6)) )(let ((?x5040 (stack_t x_0 x_SSTORE_0 w_1 w_2 0 n)))
 (let ((?x3787 (stack_t x_0 x_SSTORE_0 w_1 w_2 1 n)))
 (let ((?x63 (sc_t 0)))
 (let (($x848 (bvsle ?x63 n)))
 (or $x848 (= ?x3787 ?x5040)))))))
 ))
 (let (($x7751 (= ?x9666 (bvadd (_ bv1 6) ?x63))))
 (let (($x4103 (= $x772 (or (exc_halt_s 5) (not (bvsle (_ bv0 6) (bvadd (_ bv63 6) (sc_s 5))))))))
 (let (($x6168 (forall ((w (_ BitVec 256)) )(let ((?x7980 (storage_s x_0 x_SSTORE_0 w_1 w_2 5 w)))
 (let ((?x1299 (storage_s x_0 x_SSTORE_0 w_1 w_2 6 w)))
 (= ?x1299 ?x7980))))
 ))
 (let (($x8706 (forall ((n (_ BitVec 6)) )(let ((?x8855 (stack_s x_0 x_SSTORE_0 w_1 w_2 5 n)))
 (let ((?x10678 (stack_s x_0 x_SSTORE_0 w_1 w_2 6 n)))
 (let ((?x4319 (sc_s 5)))
 (let ((?x6895 (bvadd (_ bv63 6) ?x4319)))
 (let (($x5366 (bvsle ?x6895 n)))
 (or $x5366 (= ?x10678 ?x8855))))))))
 ))
 (let ((?x4319 (sc_s 5)))
 (let ((?x6895 (bvadd (_ bv63 6) ?x4319)))
 (let (($x8066 (= ?x926 ?x6895)))
 (let (($x5135 (= (used_gas_s x_0 x_SSTORE_0 w_1 w_2 6) (+ 2 (used_gas_s x_0 x_SSTORE_0 w_1 w_2 5)))))
 (let (($x1862 (exc_halt_s 5)))
 (let (($x939 (= $x1862 (or (exc_halt_s 4) (not (bvsle (_ bv0 6) (bvadd (_ bv62 6) (sc_s 4))))))))
 (let (($x1088 (forall ((n (_ BitVec 6)) )(let ((?x9433 (sc_s 4)))
 (let ((?x1027 (bvadd (_ bv62 6) ?x9433)))
 (let (($x11033 (bvsle ?x1027 n)))
 (let ((?x7596 (stack_s x_0 x_SSTORE_0 w_1 w_2 4 n)))
 (let ((?x8855 (stack_s x_0 x_SSTORE_0 w_1 w_2 5 n)))
 (or (= ?x8855 ?x7596) $x11033)))))))
 ))
 (let ((?x9433 (sc_s 4)))
 (let ((?x1027 (bvadd (_ bv62 6) ?x9433)))
 (let ((?x11231 (stack_s x_0 x_SSTORE_0 w_1 w_2 4 ?x1027)))
 (let (($x1847 (= ?x11231 (_ bv0 256))))
 (let ((?x8927 (bvadd (_ bv63 6) ?x9433)))
 (let ((?x9336 (stack_s x_0 x_SSTORE_0 w_1 w_2 4 ?x8927)))
 (let ((?x5282 (ite (= (storage_s x_0 x_SSTORE_0 w_1 w_2 4 ?x9336) (_ bv0 256)) (ite $x1847 5000 20000) (ite $x1847 (- 10000) 5000))))
 (let ((?x3246 (used_gas_s x_0 x_SSTORE_0 w_1 w_2 4)))
 (let ((?x9886 (used_gas_s x_0 x_SSTORE_0 w_1 w_2 5)))
 (let (($x6155 (forall ((w (_ BitVec 256)) )(let ((?x8813 (storage_s x_0 x_SSTORE_0 w_1 w_2 4 w)))
 (let (($x11080 (= w (stack_s x_0 x_SSTORE_0 w_1 w_2 4 (bvadd (_ bv63 6) (sc_s 4))))))
 (let ((?x441 (ite $x11080 (stack_s x_0 x_SSTORE_0 w_1 w_2 4 (bvadd (_ bv62 6) (sc_s 4))) ?x8813)))
 (let ((?x7980 (storage_s x_0 x_SSTORE_0 w_1 w_2 5 w)))
 (= ?x7980 ?x441))))))
 ))
 (let (($x9175 (exc_halt_s 4)))
 (let (($x4038 (= $x9175 (or (exc_halt_s 3) (not (bvsle (_ bv0 6) (bvadd (_ bv62 6) (sc_s 3))))))))
 (let (($x9306 (forall ((w (_ BitVec 256)) )(let ((?x1768 (storage_s x_0 x_SSTORE_0 w_1 w_2 3 w)))
 (let ((?x8813 (storage_s x_0 x_SSTORE_0 w_1 w_2 4 w)))
 (= ?x8813 ?x1768))))
 ))
 (let (($x9125 (forall ((n (_ BitVec 6)) )(let ((?x7624 (stack_s x_0 x_SSTORE_0 w_1 w_2 3 n)))
 (let ((?x7596 (stack_s x_0 x_SSTORE_0 w_1 w_2 4 n)))
 (let ((?x3851 (sc_s 3)))
 (let ((?x10545 (bvadd (_ bv62 6) ?x3851)))
 (let (($x5274 (bvsle ?x10545 n)))
 (or $x5274 (= ?x7596 ?x7624))))))))
 ))
 (let ((?x3851 (sc_s 3)))
 (let (($x1714 (= ?x9433 ?x3851)))
 (let (($x8424 (not (= ((_ extract 6 6) (bvadd (_ bv1 7) (concat (_ bv0 1) (sc_s 2)))) (_ bv0 1)))))
 (let (($x10052 (exc_halt_s 2)))
 (let (($x8103 (exc_halt_s 3)))
 (let (($x4734 (= $x8103 (or $x10052 $x8424))))
 (let (($x3279 (forall ((w (_ BitVec 256)) )(let ((?x3465 (storage_s x_0 x_SSTORE_0 w_1 w_2 2 w)))
 (let ((?x1768 (storage_s x_0 x_SSTORE_0 w_1 w_2 3 w)))
 (= ?x1768 ?x3465))))
 ))
 (let (($x4312 (forall ((n (_ BitVec 6)) )(let ((?x2272 (sc_s 2)))
 (let (($x7461 (bvsle ?x2272 n)))
 (let ((?x7534 (stack_s x_0 x_SSTORE_0 w_1 w_2 2 n)))
 (let ((?x7624 (stack_s x_0 x_SSTORE_0 w_1 w_2 3 n)))
 (or (= ?x7624 ?x7534) $x7461))))))
 ))
 (let (($x11788 (= ?x3851 (bvadd (_ bv1 6) (sc_s 2)))))
 (let ((?x11334 (used_gas_s x_0 x_SSTORE_0 w_1 w_2 3)))
 (let (($x11633 (not (= ((_ extract 6 6) (bvadd (_ bv1 7) (concat (_ bv0 1) (sc_s 1)))) (_ bv0 1)))))
 (let (($x8780 (exc_halt_s 1)))
 (let (($x4766 (not (bvsle (_ bv0 6) (bvadd (_ bv62 6) (sc_s 1))))))
 (let (($x4508 (= $x10052 (or $x4766 $x8780 $x11633))))
 (let (($x7523 (forall ((w (_ BitVec 256)) )(let ((?x11026 (storage_s x_0 x_SSTORE_0 w_1 w_2 1 w)))
 (let ((?x3465 (storage_s x_0 x_SSTORE_0 w_1 w_2 2 w)))
 (= ?x3465 ?x11026))))
 ))
 (let (($x6328 (forall ((n (_ BitVec 6)) )(let ((?x154 (sc_s 1)))
 (let ((?x4912 (bvadd (_ bv62 6) ?x154)))
 (let (($x7942 (bvsle ?x4912 n)))
 (let ((?x875 (stack_s x_0 x_SSTORE_0 w_1 w_2 1 n)))
 (let ((?x7534 (stack_s x_0 x_SSTORE_0 w_1 w_2 2 n)))
 (or (= ?x7534 ?x875) $x7942)))))))
 ))
 (let ((?x2272 (sc_s 2)))
 (let (($x2632 (= ?x2272 (bvadd (_ bv1 6) (sc_s 1)))))
 (let ((?x1112 (used_gas_s x_0 x_SSTORE_0 w_1 w_2 2)))
 (let (($x269 (= (stack_s x_0 x_SSTORE_0 w_1 w_2 2 (bvadd (_ bv63 6) (sc_s 1))) (stack_s x_0 x_SSTORE_0 w_1 w_2 1 (bvadd (_ bv63 6) (sc_s 1))))))
 (let ((?x154 (sc_s 1)))
 (let ((?x4912 (bvadd (_ bv62 6) ?x154)))
 (let ((?x11622 (stack_s x_0 x_SSTORE_0 w_1 w_2 1 ?x4912)))
 (let (($x2774 (= $x8780 (or $x57 (not (= ((_ extract 6 6) (bvadd (_ bv1 7) (concat (_ bv0 1) ?x72))) (_ bv0 1)))))))
 (let (($x11962 (forall ((w (_ BitVec 256)) )(let ((?x5527 (storage_s x_0 x_SSTORE_0 w_1 w_2 0 w)))
 (let ((?x11026 (storage_s x_0 x_SSTORE_0 w_1 w_2 1 w)))
 (= ?x11026 ?x5527))))
 ))
 (let (($x9176 (forall ((n (_ BitVec 6)) )(let ((?x112 (stack_s x_0 x_SSTORE_0 w_1 w_2 0 n)))
 (let ((?x875 (stack_s x_0 x_SSTORE_0 w_1 w_2 1 n)))
 (let ((?x72 (sc_s 0)))
 (let (($x3871 (bvsle ?x72 n)))
 (or $x3871 (= ?x875 ?x112)))))))
 ))
 (let (($x2838 (= ?x154 (bvadd (_ bv1 6) ?x72))))
 (let (($x15 (forall ((w (_ BitVec 256)) )(let (($x11080 (= w (stack_s x_0 x_SSTORE_0 w_1 w_2 4 (bvadd (_ bv63 6) (sc_s 4))))))
 (let ((?x5527 (storage_s x_0 x_SSTORE_0 w_1 w_2 0 w)))
 (= ?x5527 (ite $x11080 x_SSTORE_0 (_ bv0 256))))))
 ))
 (let (($x9792 (= ?x4421 0)))
 (let (($x10373 (not $x57)))
 (let (($x1397 (= (stack_s x_0 x_SSTORE_0 w_1 w_2 0 (_ bv0 6)) x_0)))
 (let (($x3513 (= ?x72 (_ bv1 6))))
 (and $x3513 $x1397 $x10373 $x9792 $x15 (= (stack_s x_0 x_SSTORE_0 w_1 w_2 1 ?x72) w_1) (= (used_gas_s x_0 x_SSTORE_0 w_1 w_2 1) (+ 3 ?x4421)) $x2838 $x9176 $x11962 $x2774 (= (stack_s x_0 x_SSTORE_0 w_1 w_2 2 (bvadd (_ bv63 6) ?x2272)) ?x11622) (= (stack_s x_0 x_SSTORE_0 w_1 w_2 2 ?x4912) ?x11622) $x269 (= ?x1112 (+ 3 (used_gas_s x_0 x_SSTORE_0 w_1 w_2 1))) $x2632 $x6328 $x7523 $x4508 (= (stack_s x_0 x_SSTORE_0 w_1 w_2 3 ?x2272) w_2) (= ?x11334 (+ 3 ?x1112)) $x11788 $x4312 $x3279 $x4734 (= ?x9336 (stack_s x_0 x_SSTORE_0 w_1 w_2 3 (bvadd (_ bv62 6) ?x3851))) (= ?x11231 (stack_s x_0 x_SSTORE_0 w_1 w_2 3 (bvadd (_ bv63 6) ?x3851))) (= ?x3246 (+ 3 ?x11334)) $x1714 $x9125 $x9306 $x4038 $x6155 (= ?x9886 (+ ?x3246 ?x5282)) (= ?x4319 ?x1027) $x1088 $x939 $x5135 $x8066 $x8706 $x6168 $x4103 (= (stack_t x_0 x_SSTORE_0 w_1 w_2 1 ?x63) w_2) (= (used_gas_t x_0 x_SSTORE_0 w_1 w_2 1) (+ 3 ?x1083)) $x7751 $x1883 $x7648 $x10044 (= ?x10663 ?x369) (= (stack_t x_0 x_SSTORE_0 w_1 w_2 2 ?x1208) ?x369) $x2545 (= ?x1174 (+ 3 (used_gas_t x_0 x_SSTORE_0 w_1 w_2 1))) $x3033 $x10740 $x11774 $x663 $x6897 (= (used_gas_t x_0 x_SSTORE_0 w_1 w_2 3) (+ ?x1174 ?x5871)) (= ?x11964 (bvadd (_ bv62 6) ?x11248)) $x7507 $x10484 $x73 $x4256 $x58 $x8828 $x7210 (not (and $x6604 $x6432 $x11565 $x433)))))))))))))))))))))))))))))))))))))))))))))))))))))))))))))))))))))))))))))))))))))))))))))))))))))))
 )
(check-sat)
(get-proof)
